5 5
3 43 2 97 1 72 0 13 4 90
0 56 3 17 1 88 2 24 4 76
3 95 2 58 1 80 4 61 0 80
3 94 0 28 2 67 4 97 1 51
0 88 3 94 2 92 4 39 1 66
-1
0 3 5
0 1 2 4 5
0 3 5
0 2 3 4 5
0 1 3 5
-2
231 471
59 84 235 287
355 569
160 254 448 417
92 402 603

588 8
20 5 16 3 14
2 7 12 19 24
1 17 11 22 8
0 15 6 10 21
4 18 13 23 9
